data;


param FN:= 7;
param D:= 100;
param U_Original:=
         1         1        1.457825e-01
         2         1       -1.606180e+00
         3         1       -1.060273e+00
         4         1        6.437151e-01
         5         1       -1.617651e-01
         6         1       -1.456555e+00
         7         1        9.257421e-02
         8         1        2.719093e-01
         9         1       -2.170838e+00
        10         1        9.164061e-01
        11         1       -3.449906e-01
        12         1        2.368785e-01
        13         1        9.422262e-01
        14         1       -3.653395e-01
        15         1       -1.671937e-02
        16         1       -2.379334e-01
        17         1        6.128169e-02
        18         1        7.012563e-01
        19         1       -1.561735e+00
        20         1       -3.926597e-01
        21         1        1.127538e+00
        22         1       -4.594027e-03
        23         1        1.486521e-01
        24         1        1.985120e-01
        25         1        2.434413e-01
        26         1        2.005335e-01
        27         1        4.540573e-01
        28         1        5.060352e-01
        29         1       -3.698756e-01
        30         1       -9.240096e-01
        31         1        7.850043e-01
        32         1        1.330256e+00
        33         1       -9.535503e-02
        34         1       -1.049831e+00
        35         1        1.321981e-01
        36         1        4.906757e-01
        37         1        1.051003e+00
        38         1       -1.179597e+00
        39         1       -2.668170e+00
        40         1       -1.340319e+00
        41         1        7.256700e-01
        42         1       -1.568050e-01
        43         1        8.227697e-01
        44         1        7.082678e-01
        45         1       -2.025454e-01
        46         1        1.868499e+00
        47         1       -1.224300e-01
        48         1       -7.506490e-01
        49         1       -1.390003e+00
        50         1       -1.373110e+00
        51         1       -7.665778e-01
        52         1        8.320582e-01
        53         1        5.645954e-01
        54         1        7.288414e-03
        55         1        1.354647e+00
        56         1       -2.571548e-01
        57         1       -3.319917e-01
        58         1        1.650828e+00
        59         1       -6.958484e-01
        60         1       -2.478143e+00
        61         1       -1.467696e+00
        62         1       -1.937560e-01
        63         1        1.708560e+00
        64         1        2.043951e+00
        65         1       -1.313615e+00
        66         1        3.227242e-01
        67         1       -1.742557e+00
        68         1       -1.736141e-01
        69         1        1.420477e+00
        70         1       -2.948776e-01
        71         1       -1.100866e+00
        72         1        6.081770e-01
        73         1        4.067543e-01
        74         1        9.433463e-01
        75         1        9.248861e-01
        76         1        1.209190e+00
        77         1        1.229388e+00
        78         1       -1.267559e+00
        79         1        6.317857e-01
        80         1        2.343940e+00
        81         1        6.602542e-01
        82         1        6.617157e-01
        83         1       -3.734332e-02
        84         1       -1.771412e-01
        85         1       -2.703438e-01
        86         1       -2.444262e-02
        87         1       -2.700189e-01
        88         1       -4.468183e-01
        89         1        7.702479e-01
        90         1        2.381134e-01
        91         1        2.029299e+00
        92         1       -1.876438e+00
        93         1        2.438825e+00
        94         1        3.836892e-01
        95         1       -3.569714e-02
        96         1       -8.339796e-01
        97         1        1.076078e+00
        98         1        1.738338e-01
        99         1        4.850790e-01
       100         1       -4.100966e-01
         1         2        8.821673e-01
         2         2       -6.180185e-01
         3         2        2.133040e-01
         4         2       -8.464344e-01
         5         2        1.662653e+00
         6         2       -5.339819e-01
         7         2       -1.069841e-01
         8         2        8.451873e-01
         9         2        1.891958e+00
        10         2        6.066197e-01
        11         2       -1.689670e+00
        12         2        8.440688e-01
        13         2        1.955789e-01
        14         2        8.738517e-01
        15         2        5.773083e-01
        16         2       -8.369406e-01
        17         2       -6.704270e-01
        18         2       -9.252845e-02
        19         2       -3.498132e-01
        20         2        7.985320e-01
        21         2        2.683657e-01
        22         2        9.925208e-01
        23         2        5.369647e-01
        24         2       -4.944176e-01
        25         2       -6.668684e-01
        26         2        7.094204e-01
        27         2        1.405330e+00
        28         2        3.332786e-01
        29         2        1.131449e+00
        30         2       -1.409641e+00
        31         2       -7.976711e-01
        32         2        7.921697e-01
        33         2        2.365095e-01
        34         2       -3.114934e-01
        35         2        8.410733e-02
        36         2        1.565429e-01
        37         2        2.097871e+00
        38         2       -9.364152e-02
        39         2       -3.560983e-01
        40         2       -8.685458e-01
        41         2        1.547709e+00
        42         2        2.501504e-01
        43         2       -1.174105e+00
        44         2       -2.085239e+00
        45         2        1.536349e+00
        46         2        4.395710e-01
        47         2        3.006982e-01
        48         2       -1.020570e+00
        49         2       -4.593581e-01
        50         2        2.348454e-01
        51         2       -1.635862e+00
        52         2       -2.683814e+00
        53         2       -1.829565e+00
        54         2       -1.552224e+00
        55         2        8.240565e-01
        56         2        1.165595e+00
        57         2       -4.299494e-01
        58         2        9.133715e-02
        59         2        1.412673e+00
        60         2        5.909526e-01
        61         2        7.208477e-01
        62         2        7.515279e-01
        63         2       -8.090024e-01
        64         2        6.853088e-01
        65         2       -1.744942e+00
        66         2       -1.197595e+00
        67         2       -1.553108e-01
        68         2       -1.974202e+00
        69         2        7.684323e-01
        70         2        3.516631e-01
        71         2       -9.254331e-01
        72         2        4.708282e-01
        73         2        1.993142e-01
        74         2       -1.180499e+00
        75         2       -6.417649e-01
        76         2       -1.292006e+00
        77         2        1.013393e+00
        78         2        3.882228e-01
        79         2        7.553717e-02
        80         2       -1.340375e+00
        81         2        2.905053e+00
        82         2       -2.601031e-01
        83         2        4.859429e-01
        84         2        4.831219e-01
        85         2        7.165633e-01
        86         2       -3.508281e-01
        87         2       -1.002753e+00
        88         2        1.357063e-02
        89         2       -6.105833e-01
        90         2        1.753793e+00
        91         2       -5.835548e-01
        92         2       -1.652800e+00
        93         2       -1.601410e+00
        94         2       -3.809381e-01
        95         2       -8.712009e-01
        96         2        4.545957e-01
        97         2       -3.795062e-01
        98         2       -4.334816e-01
        99         2        9.448856e-01
       100         2       -9.721130e-01
         1         3        3.734846e-01
         2         3       -9.090121e-01
         3         3       -1.275560e+00
         4         3        5.599937e-01
         5         3        8.670834e-01
         6         3       -1.267775e+00
         7         3        1.308423e+00
         8         3        7.005310e-01
         9         3       -1.903077e+00
        10         3        1.130994e-01
        11         3        1.751316e+00
        12         3        1.200908e+00
        13         3        1.151730e+00
        14         3       -1.507439e+00
        15         3       -1.292408e+00
        16         3       -4.916184e-01
        17         3       -8.653173e-01
        18         3       -5.670376e-01
        19         3       -8.852577e-01
        20         3       -7.810376e-01
        21         3        7.968571e-01
        22         3        1.062503e+00
        23         3       -5.496439e-01
        24         3       -7.949429e-02
        25         3        1.761431e+00
        26         3        1.069899e+00
        27         3       -3.883021e-01
        28         3       -6.688230e-01
        29         3       -1.502763e+00
        30         3       -1.103271e-01
        31         3       -1.742880e+00
        32         3       -1.003433e+00
        33         3        1.167002e+00
        34         3        1.561702e+00
        35         3       -2.135446e+00
        36         3       -4.004995e-01
        37         3        1.451960e+00
        38         3        1.358147e-01
        39         3       -3.006463e-01
        40         3        4.646503e-01
        41         3       -8.959572e-01
        42         3        1.114280e+00
        43         3        1.057442e+00
        44         3       -5.418180e-01
        45         3       -3.723547e-01
        46         3        1.977373e+00
        47         3       -1.011380e+00
        48         3        1.105905e+00
        49         3       -2.396243e+00
        50         3       -5.179636e-01
        51         3        2.637235e-02
        52         3       -6.308576e-01
        53         3        5.700410e-01
        54         3       -1.974584e+00
        55         3        4.003836e-01
        56         3       -1.103143e+00
        57         3       -7.833636e-02
        58         3       -7.823450e-01
        59         3       -1.953018e+00
        60         3       -9.781990e-01
        61         3       -1.796531e+00
        62         3        3.695196e-01
        63         3       -1.041270e+00
        64         3       -3.086784e-01
        65         3        1.248443e+00
        66         3        1.637636e-01
        67         3        1.722489e-01
        68         3        8.363493e-01
        69         3       -1.052733e+00
        70         3        1.183876e+00
        71         3        7.664815e-02
        72         3        3.657887e-01
        73         3        1.059299e+00
        74         3       -5.848753e-01
        75         3       -1.857646e-01
        76         3       -3.781938e-01
        77         3        1.567942e+00
        78         3       -1.285113e+00
        79         3       -1.014803e+00
        80         3       -1.616992e+00
        81         3        1.663172e-01
        82         3        8.431123e-01
        83         3        1.818264e-01
        84         3        9.123668e-01
        85         3        8.729951e-01
        86         3       -4.907389e-04
        87         3        4.802447e-01
        88         3        4.749349e-01
        89         3       -1.551899e+00
        90         3        5.715382e-01
        91         3       -2.377171e-01
        92         3        6.127030e-01
        93         3        6.727095e-01
        94         3       -3.758460e-01
        95         3        1.662776e+00
        96         3       -7.708601e-03
        97         3        4.028160e-01
        98         3        8.886728e-01
        99         3        2.361678e+00
       100         3        3.200856e-01
         1         4       -1.067883e+00
         2         4       -1.884277e+00
         3         4        1.825326e+00
         4         4        6.910947e-04
         5         4        3.769242e-01
         6         4        5.848597e-01
         7         4       -1.791217e-01
         8         4        2.856310e-01
         9         4       -1.127428e+00
        10         4       -4.008202e-01
        11         4        1.076813e+00
        12         4        1.155972e+00
        13         4        3.949116e-01
        14         4        1.804120e+00
        15         4       -6.186536e-01
        16         4        1.020354e-01
        17         4       -4.597148e-01
        18         4        1.245939e+00
        19         4       -1.271107e+00
        20         4       -7.643495e-01
        21         4       -1.617077e+00
        22         4        6.473732e-01
        23         4       -7.147705e-01
        24         4       -6.062328e-01
        25         4        1.101391e-01
        26         4       -2.361337e-01
        27         4       -5.179139e-01
        28         4       -1.500318e+00
        29         4        5.511606e-01
        30         4       -8.092590e-01
        31         4       -7.023479e-01
        32         4       -2.938460e-01
        33         4        2.641941e-01
        34         4       -5.112693e-01
        35         4       -1.464358e-01
        36         4       -1.200203e-01
        37         4       -2.795108e-01
        38         4        2.818693e-01
        39         4        7.482221e-01
        40         4        2.492010e-01
        41         4       -6.405089e-01
        42         4       -1.742664e+00
        43         4       -7.433712e-01
        44         4        6.636130e-02
        45         4       -8.775290e-01
        46         4       -4.960375e-02
        47         4       -1.005548e-01
        48         4       -1.399239e+00
        49         4        1.405582e+00
        50         4        9.161047e-01
        51         4       -6.802823e-01
        52         4        1.486505e+00
        53         4        6.991313e-01
        54         4        2.413949e-01
        55         4        3.876762e-01
        56         4        7.542609e-01
        57         4        3.507509e-01
        58         4        1.005233e+00
        59         4        1.205147e+00
        60         4        9.948286e-01
        61         4       -7.902051e-02
        62         4       -5.836937e-02
        63         4       -8.092941e-01
        64         4        4.048651e-01
        65         4       -9.699237e-01
        66         4       -7.327979e-01
        67         4       -1.444408e+00
        68         4        2.329299e+00
        69         4        4.636322e-01
        70         4        1.157075e+00
        71         4       -1.096376e+00
        72         4       -8.255875e-01
        73         4        1.103376e+00
        74         4       -3.987613e-01
        75         4        1.077934e+00
        76         4       -8.875764e-01
        77         4        5.499735e-02
        78         4        6.644749e-01
        79         4        8.013581e-01
        80         4        3.824249e-01
        81         4        9.777162e-01
        82         4        1.649655e+00
        83         4       -2.886696e-01
        84         4        5.433083e-01
        85         4       -9.621807e-01
        86         4        9.695895e-01
        87         4        1.844178e-01
        88         4       -3.526719e-01
        89         4        9.659142e-01
        90         4        2.130972e+00
        91         4        6.075990e-01
        92         4        1.740037e+00
        93         4       -8.717291e-01
        94         4        3.904125e-01
        95         4        2.248114e+00
        96         4        1.045869e+00
        97         4        5.686096e-01
        98         4       -4.154034e-01
        99         4       -5.287455e-01
       100         4        5.381395e-01
         1         5       -8.586254e-01
         2         5        3.586166e-01
         3         5       -2.116661e-02
         4         5       -3.357963e-01
         5         5       -4.525086e-01
         6         5       -1.528227e+00
         7         5       -2.202916e+00
         8         5       -3.955691e-01
         9         5       -1.873391e-01
        10         5       -1.470179e-01
        11         5       -1.639157e-01
        12         5       -8.343159e-01
        13         5        7.130324e-01
        14         5        1.487138e-01
        15         5        1.796434e+00
        16         5        6.499154e-01
        17         5       -3.060172e-01
        18         5        1.284026e+00
        19         5       -1.313160e+00
        20         5        3.972205e-01
        21         5        1.288537e+00
        22         5        5.404823e-01
        23         5        8.158305e-02
        24         5       -5.347846e-01
        25         5       -1.770010e-01
        26         5       -7.454507e-01
        27         5       -2.048185e+00
        28         5        4.314179e-01
        29         5       -8.679601e-01
        30         5        1.033095e+00
        31         5       -1.639601e-02
        32         5       -3.226654e-01
        33         5       -1.161683e+00
        34         5        6.187660e-01
        35         5       -1.213623e+00
        36         5        1.577480e+00
        37         5        2.550578e+00
        38         5        1.037302e+00
        39         5       -1.558589e+00
        40         5       -8.871954e-01
        41         5       -2.161330e+00
        42         5        1.107418e+00
        43         5       -7.398174e-01
        44         5       -2.573883e-01
        45         5        4.354592e-01
        46         5       -4.375197e-01
        47         5       -6.063413e-02
        48         5        1.266996e+00
        49         5       -2.861053e+00
        50         5       -5.353379e-02
        51         5        5.264144e-01
        52         5       -8.340679e-01
        53         5        5.974302e-02
        54         5        9.616605e-01
        55         5        9.791111e-01
        56         5       -6.818103e-01
        57         5       -3.299308e-01
        58         5       -1.049159e+00
        59         5       -4.946139e-01
        60         5       -1.013158e+00
        61         5       -1.219168e+00
        62         5       -8.094233e-01
        63         5        2.748049e-01
        64         5        2.629013e+00
        65         5       -3.863435e-01
        66         5        1.005718e+00
        67         5        7.301458e-02
        68         5       -4.547501e-01
        69         5       -1.469211e+00
        70         5        1.341137e+00
        71         5       -2.084450e-01
        72         5        5.184938e-01
        73         5        7.489529e-02
        74         5       -1.245660e-01
        75         5       -2.997788e-02
        76         5        2.260899e-01
        77         5        8.734621e-01
        78         5        7.019872e-01
        79         5        1.995329e+00
        80         5       -5.821961e-01
        81         5       -7.361078e-02
        82         5       -6.966010e-01
        83         5        3.478744e+00
        84         5        1.698206e+00
        85         5        2.748760e-01
        86         5       -6.221622e-01
        87         5        2.001423e+00
        88         5        4.243586e-01
        89         5        8.082740e-01
        90         5        9.989583e-01
        91         5       -2.926855e-02
        92         5        3.012879e-01
        93         5       -8.574788e-01
        94         5        9.462205e-01
        95         5       -4.647766e-01
        96         5        2.180534e+00
        97         5       -3.493273e-01
        98         5       -3.672638e-01
        99         5        1.859888e+00
       100         5        2.669987e-01
;
param X_Original:=
    1       -3.205389e-01
    2        5.909359e-01
    3        2.846454e-02
    4       -3.413390e-01
    5       -3.977669e-01
    6        5.630545e-01
    7        5.263052e-01
    8       -1.719935e-01
    9        5.462112e+00
   10        8.682929e-01
   11        1.091101e+00
   12       -1.465028e-02
   13       -3.241500e-01
   14       -5.407820e-01
   15        1.039280e+00
   16       -7.118940e-01
   17        7.941981e-01
   18        7.662324e-01
   19        9.154717e-01
   20        1.809769e+00
   21       -1.409504e+00
   22        8.010290e-01
   23        8.904129e-02
   24       -1.279780e+00
   25       -1.309498e+00
   26        4.271164e-01
   27        1.695175e+00
   28       -1.095472e+00
   29        2.457877e-01
   30        1.102642e+00
   31        1.714836e-01
   32        1.704929e+00
   33       -1.205553e+00
   34       -3.524043e-01
   35        5.843519e-02
   36        1.046420e+00
   37        3.169235e+00
   38       -8.624393e-01
   39        2.980511e+00
   40       -1.540141e+00
   41        1.592200e+00
   42        1.201006e-01
   43       -8.282073e-02
   44        5.075812e-01
   45       -3.015394e+00
   46        9.988260e-01
   47        7.967675e-01
   48        4.756349e-01
   49       -6.248534e-01
   50        1.832626e+00
   51       -5.297798e-01
   52       -5.776456e-01
   53       -2.546037e+00
   54       -1.008941e+00
   55       -2.327884e-01
   56        7.091556e-01
   57       -5.174039e-02
   58       -2.869057e-01
   59       -1.776043e+00
   60        7.530858e-01
   61        2.025397e+00
   62       -2.376979e-04
   63        6.873579e-02
   64       -6.144964e-02
   65       -6.237441e-01
   66       -1.579531e-01
   67        3.433622e-01
   68       -1.161163e+00
   69        2.131954e+00
   70        3.128090e+00
   71        2.464993e+00
   72       -1.292305e+00
   73        8.532936e-01
   74        7.170641e-01
   75        3.102977e-01
   76        5.782323e-01
   77        1.646652e+00
   78        9.764957e-02
   79        5.076497e-02
   80       -1.435153e-01
   81        2.228251e-01
   82       -4.154505e-01
   83       -6.521633e-02
   84       -5.591514e-02
   85        8.915585e-01
   86       -1.167952e+00
   87        2.210475e+00
   88        3.476790e-01
   89        9.662344e-01
   90       -8.657034e-01
   91        9.867662e-01
   92       -6.573881e-01
   93       -5.694706e-02
   94       -8.207584e-01
   95       -5.289941e-01
   96        1.056217e+00
   97       -2.121115e+00
   98        3.679861e-01
   99       -1.748042e+00
  100        2.819850e+00
;
param outliervec_original :=
    1    1
    2    1
    3    1
    4    1
    5    1
    6    1
    7    1
    8    0
    9    0
   10    1
   11    1
   12    1
   13    1
   14    1
   15    1
   16    1
   17    1
   18    1
   19    1
   20    0
   21    1
   22    1
   23    0
   24    1
   25    1
   26    1
   27    1
   28    1
   29    1
   30    1
   31    1
   32    1
   33    1
   34    1
   35    1
   36    1
   37    0
   38    1
   39    0
   40    1
   41    1
   42    1
   43    1
   44    1
   45    1
   46    1
   47    1
   48    1
   49    1
   50    1
   51    1
   52    1
   53    0
   54    1
   55    0
   56    1
   57    0
   58    1
   59    1
   60    1
   61    1
   62    1
   63    1
   64    1
   65    0
   66    1
   67    1
   68    0
   69    1
   70    0
   71    1
   72    1
   73    1
   74    1
   75    1
   76    1
   77    1
   78    1
   79    1
   80    1
   81    1
   82    1
   83    1
   84    1
   85    0
   86    1
   87    0
   88    1
   89    1
   90    1
   91    1
   92    1
   93    1
   94    1
   95    0
   96    1
   97    1
   98    1
   99    1
  100    1
;
param d:= 57;
param r:=5;
param p:=0.840000;
param M:=1000;
param U:=
         1         1       -1.060273e+00
         2         1        6.437151e-01
         3         1       -1.617651e-01
         4         1       -1.456555e+00
         5         1        2.719093e-01
         6         1       -2.170838e+00
         7         1        9.164061e-01
         8         1       -3.653395e-01
         9         1       -1.671937e-02
        10         1       -2.379334e-01
        11         1        6.128169e-02
        12         1       -1.561735e+00
        13         1       -3.926597e-01
        14         1        2.434413e-01
        15         1        2.005335e-01
        16         1        4.540573e-01
        17         1        1.330256e+00
        18         1       -9.535503e-02
        19         1       -1.049831e+00
        20         1        4.906757e-01
        21         1       -1.179597e+00
        22         1       -1.340319e+00
        23         1        7.256700e-01
        24         1       -1.568050e-01
        25         1        8.227697e-01
        26         1       -1.224300e-01
        27         1       -7.506490e-01
        28         1       -7.665778e-01
        29         1        5.645954e-01
        30         1        1.354647e+00
        31         1       -2.571548e-01
        32         1       -3.319917e-01
        33         1        1.650828e+00
        34         1       -2.478143e+00
        35         1       -1.467696e+00
        36         1       -1.937560e-01
        37         1        2.043951e+00
        38         1       -1.313615e+00
        39         1        3.227242e-01
        40         1       -1.742557e+00
        41         1        1.420477e+00
        42         1        9.433463e-01
        43         1        1.209190e+00
        44         1       -1.267559e+00
        45         1        6.317857e-01
        46         1        2.343940e+00
        47         1        6.602542e-01
        48         1       -3.734332e-02
        49         1       -2.703438e-01
        50         1       -2.444262e-02
        51         1       -4.468183e-01
        52         1        2.381134e-01
        53         1        2.438825e+00
        54         1        3.836892e-01
        55         1        1.076078e+00
        56         1        1.738338e-01
        57         1        4.850790e-01
         1         2        2.133040e-01
         2         2       -8.464344e-01
         3         2        1.662653e+00
         4         2       -5.339819e-01
         5         2        8.451873e-01
         6         2        1.891958e+00
         7         2        6.066197e-01
         8         2        8.738517e-01
         9         2        5.773083e-01
        10         2       -8.369406e-01
        11         2       -6.704270e-01
        12         2       -3.498132e-01
        13         2        7.985320e-01
        14         2       -6.668684e-01
        15         2        7.094204e-01
        16         2        1.405330e+00
        17         2        7.921697e-01
        18         2        2.365095e-01
        19         2       -3.114934e-01
        20         2        1.565429e-01
        21         2       -9.364152e-02
        22         2       -8.685458e-01
        23         2        1.547709e+00
        24         2        2.501504e-01
        25         2       -1.174105e+00
        26         2        3.006982e-01
        27         2       -1.020570e+00
        28         2       -1.635862e+00
        29         2       -1.829565e+00
        30         2        8.240565e-01
        31         2        1.165595e+00
        32         2       -4.299494e-01
        33         2        9.133715e-02
        34         2        5.909526e-01
        35         2        7.208477e-01
        36         2        7.515279e-01
        37         2        6.853088e-01
        38         2       -1.744942e+00
        39         2       -1.197595e+00
        40         2       -1.553108e-01
        41         2        7.684323e-01
        42         2       -1.180499e+00
        43         2       -1.292006e+00
        44         2        3.882228e-01
        45         2        7.553717e-02
        46         2       -1.340375e+00
        47         2        2.905053e+00
        48         2        4.859429e-01
        49         2        7.165633e-01
        50         2       -3.508281e-01
        51         2        1.357063e-02
        52         2        1.753793e+00
        53         2       -1.601410e+00
        54         2       -3.809381e-01
        55         2       -3.795062e-01
        56         2       -4.334816e-01
        57         2        9.448856e-01
         1         3       -1.275560e+00
         2         3        5.599937e-01
         3         3        8.670834e-01
         4         3       -1.267775e+00
         5         3        7.005310e-01
         6         3       -1.903077e+00
         7         3        1.130994e-01
         8         3       -1.507439e+00
         9         3       -1.292408e+00
        10         3       -4.916184e-01
        11         3       -8.653173e-01
        12         3       -8.852577e-01
        13         3       -7.810376e-01
        14         3        1.761431e+00
        15         3        1.069899e+00
        16         3       -3.883021e-01
        17         3       -1.003433e+00
        18         3        1.167002e+00
        19         3        1.561702e+00
        20         3       -4.004995e-01
        21         3        1.358147e-01
        22         3        4.646503e-01
        23         3       -8.959572e-01
        24         3        1.114280e+00
        25         3        1.057442e+00
        26         3       -1.011380e+00
        27         3        1.105905e+00
        28         3        2.637235e-02
        29         3        5.700410e-01
        30         3        4.003836e-01
        31         3       -1.103143e+00
        32         3       -7.833636e-02
        33         3       -7.823450e-01
        34         3       -9.781990e-01
        35         3       -1.796531e+00
        36         3        3.695196e-01
        37         3       -3.086784e-01
        38         3        1.248443e+00
        39         3        1.637636e-01
        40         3        1.722489e-01
        41         3       -1.052733e+00
        42         3       -5.848753e-01
        43         3       -3.781938e-01
        44         3       -1.285113e+00
        45         3       -1.014803e+00
        46         3       -1.616992e+00
        47         3        1.663172e-01
        48         3        1.818264e-01
        49         3        8.729951e-01
        50         3       -4.907389e-04
        51         3        4.749349e-01
        52         3        5.715382e-01
        53         3        6.727095e-01
        54         3       -3.758460e-01
        55         3        4.028160e-01
        56         3        8.886728e-01
        57         3        2.361678e+00
         1         4        1.825326e+00
         2         4        6.910947e-04
         3         4        3.769242e-01
         4         4        5.848597e-01
         5         4        2.856310e-01
         6         4       -1.127428e+00
         7         4       -4.008202e-01
         8         4        1.804120e+00
         9         4       -6.186536e-01
        10         4        1.020354e-01
        11         4       -4.597148e-01
        12         4       -1.271107e+00
        13         4       -7.643495e-01
        14         4        1.101391e-01
        15         4       -2.361337e-01
        16         4       -5.179139e-01
        17         4       -2.938460e-01
        18         4        2.641941e-01
        19         4       -5.112693e-01
        20         4       -1.200203e-01
        21         4        2.818693e-01
        22         4        2.492010e-01
        23         4       -6.405089e-01
        24         4       -1.742664e+00
        25         4       -7.433712e-01
        26         4       -1.005548e-01
        27         4       -1.399239e+00
        28         4       -6.802823e-01
        29         4        6.991313e-01
        30         4        3.876762e-01
        31         4        7.542609e-01
        32         4        3.507509e-01
        33         4        1.005233e+00
        34         4        9.948286e-01
        35         4       -7.902051e-02
        36         4       -5.836937e-02
        37         4        4.048651e-01
        38         4       -9.699237e-01
        39         4       -7.327979e-01
        40         4       -1.444408e+00
        41         4        4.636322e-01
        42         4       -3.987613e-01
        43         4       -8.875764e-01
        44         4        6.644749e-01
        45         4        8.013581e-01
        46         4        3.824249e-01
        47         4        9.777162e-01
        48         4       -2.886696e-01
        49         4       -9.621807e-01
        50         4        9.695895e-01
        51         4       -3.526719e-01
        52         4        2.130972e+00
        53         4       -8.717291e-01
        54         4        3.904125e-01
        55         4        5.686096e-01
        56         4       -4.154034e-01
        57         4       -5.287455e-01
         1         5       -2.116661e-02
         2         5       -3.357963e-01
         3         5       -4.525086e-01
         4         5       -1.528227e+00
         5         5       -3.955691e-01
         6         5       -1.873391e-01
         7         5       -1.470179e-01
         8         5        1.487138e-01
         9         5        1.796434e+00
        10         5        6.499154e-01
        11         5       -3.060172e-01
        12         5       -1.313160e+00
        13         5        3.972205e-01
        14         5       -1.770010e-01
        15         5       -7.454507e-01
        16         5       -2.048185e+00
        17         5       -3.226654e-01
        18         5       -1.161683e+00
        19         5        6.187660e-01
        20         5        1.577480e+00
        21         5        1.037302e+00
        22         5       -8.871954e-01
        23         5       -2.161330e+00
        24         5        1.107418e+00
        25         5       -7.398174e-01
        26         5       -6.063413e-02
        27         5        1.266996e+00
        28         5        5.264144e-01
        29         5        5.974302e-02
        30         5        9.791111e-01
        31         5       -6.818103e-01
        32         5       -3.299308e-01
        33         5       -1.049159e+00
        34         5       -1.013158e+00
        35         5       -1.219168e+00
        36         5       -8.094233e-01
        37         5        2.629013e+00
        38         5       -3.863435e-01
        39         5        1.005718e+00
        40         5        7.301458e-02
        41         5       -1.469211e+00
        42         5       -1.245660e-01
        43         5        2.260899e-01
        44         5        7.019872e-01
        45         5        1.995329e+00
        46         5       -5.821961e-01
        47         5       -7.361078e-02
        48         5        3.478744e+00
        49         5        2.748760e-01
        50         5       -6.221622e-01
        51         5        4.243586e-01
        52         5        9.989583e-01
        53         5       -8.574788e-01
        54         5        9.462205e-01
        55         5       -3.493273e-01
        56         5       -3.672638e-01
        57         5        1.859888e+00
;

param theta:=
    1       -1.865516e+00
    2        1.009781e+00
    3       -2.004881e-01
    4        5.549457e-01
    5        1.355662e+00
;
param X_true:=
    1        3.433344e+00
    2       -2.622689e+00
    3        1.402575e+00
    4        6.850006e-01
    5       -1.719935e-01
    6        5.462112e+00
    7       -1.541432e+00
    8        3.068964e+00
    9        2.965295e+00
   10        6.349949e-01
   11       -1.287793e+00
   12        2.520936e-01
   13        1.809769e+00
   14       -1.659513e+00
   15       -1.013861e+00
   16       -2.414185e+00
   17       -2.081012e+00
   18       -1.245497e+00
   19        1.885944e+00
   20        1.394930e+00
   21        3.641423e+00
   22        4.657453e-01
   23       -2.896752e+00
   24        8.559203e-01
   25       -4.347957e+00
   26        5.968023e-01
   27        1.089191e+00
   28        1.090338e-01
   29       -2.546037e+00
   30       -2.327884e-01
   31        1.372159e+00
   32       -5.174039e-02
   33       -3.695018e+00
   34        4.594441e+00
   35        2.129459e+00
   36       -8.344669e-02
   37        7.296060e-01
   38       -6.237441e-01
   39       -8.874378e-01
   40        2.356820e+00
   41       -3.397376e+00
   42       -3.224773e+00
   43       -3.670639e+00
   44        4.334726e+00
   45        2.250827e+00
   46       -5.978992e+00
   47        2.111196e+00
   48        5.079711e+00
   49        8.915585e-01
   50       -6.139352e-01
   51        1.131604e+00
   52        3.748979e+00
   53       -7.947824e+00
   54        4.743228e-01
   55       -2.629442e+00
   56       -1.668591e+00
   57        1.803670e+00
;
param X:=
    1        2.846454e-02
    2       -3.413390e-01
    3       -3.977669e-01
    4        5.630545e-01
    5       -1.719935e-01
    6        5.462112e+00
    7        8.682929e-01
    8       -5.407820e-01
    9        1.039280e+00
   10       -7.118940e-01
   11        7.941981e-01
   12        9.154717e-01
   13        1.809769e+00
   14       -1.309498e+00
   15        4.271164e-01
   16        1.695175e+00
   17        1.704929e+00
   18       -1.205553e+00
   19       -3.524043e-01
   20        1.046420e+00
   21       -8.624393e-01
   22       -1.540141e+00
   23        1.592200e+00
   24        1.201006e-01
   25       -8.282073e-02
   26        7.967675e-01
   27        4.756349e-01
   28       -5.297798e-01
   29       -2.546037e+00
   30       -2.327884e-01
   31        7.091556e-01
   32       -5.174039e-02
   33       -2.869057e-01
   34        7.530858e-01
   35        2.025397e+00
   36       -2.376979e-04
   37       -6.144964e-02
   38       -6.237441e-01
   39       -1.579531e-01
   40        3.433622e-01
   41        2.131954e+00
   42        7.170641e-01
   43        5.782323e-01
   44        9.764957e-02
   45        5.076497e-02
   46       -1.435153e-01
   47        2.228251e-01
   48       -6.521633e-02
   49        8.915585e-01
   50       -1.167952e+00
   51        3.476790e-01
   52       -8.657034e-01
   53       -5.694706e-02
   54       -8.207584e-01
   55       -2.121115e+00
   56        3.679861e-01
   57       -1.748042e+00
;
param outliervec:=
    1    1
    2    1
    3    1
    4    1
    5    0
    6    0
    7    1
    8    1
    9    1
   10    1
   11    1
   12    1
   13    0
   14    1
   15    1
   16    1
   17    1
   18    1
   19    1
   20    1
   21    1
   22    1
   23    1
   24    1
   25    1
   26    1
   27    1
   28    1
   29    0
   30    0
   31    1
   32    0
   33    1
   34    1
   35    1
   36    1
   37    1
   38    0
   39    1
   40    1
   41    1
   42    1
   43    1
   44    1
   45    1
   46    1
   47    1
   48    1
   49    0
   50    1
   51    1
   52    1
   53    1
   54    1
   55    1
   56    1
   57    1
; 
param greedy_time :=         3.575208e-01
;